Traveling Salesman Problem/TSP_generados/Aleatorio1621103371_12.tsp
NAME: Aleatorio1621103371_12.tsp
COMMENT: Randomly generated scenario
TYPE: TSP
DIMENSION: 12
EDGE_WEIGHT_TYPE: ATT
NODE_COORD_SECTION
1 31.51 41.7
2 45.8 15.04
3 4.54 47.74
4 38.22 13.19
5 8.47 6.92
6 9.79 34.29
7 0.16 29.72
8 7.25 43.0
9 7.82 34.49
10 20.55 5.25
11 36.36 43.77
12 41.07 48.32
