Traveling Salesman Problem/TSP_generados/Aleatorio1621103371_12.opt.tour
NAME: Aleatorio1621103371_12.opt.tour
COMMENT: Optimal solution for Aleatorio1621103371_12 (162.24779561980006)
TYPE: TOUR
DIMENSION: 12
TOUR_SECTION
1 3 8 6 9 7 5 10 4 2 12 11
-1
EOF
